cd:                                     
   5.46971340000000     
     1.0000000000000000    1.0000000000000000    0.0000000000000000
     0.0000000000000000    1.0000000000000000    1.0000000000000000
     1.0000000000000000    0.0000000000000000    1.0000000000000000
   Si
    17
Direct
  0.3125000000000000  0.3125000000000000  0.0625000000000000
  0.0153596137321769  0.0153596137321769 -0.0460788411965306
  0.5095878752583050 -0.0219854054179817  0.0028096549013731
 -0.0219854054179817  0.5095878752583050  0.0028096549013731
  0.5095878752583050  0.5095878752583050  0.0028096549013731
 -0.0020727614486044 -0.0020727614486044  0.4931176612718954
  0.5110278616253128 -0.0020727614486044  0.4931176612718954
 -0.0020727614486044  0.5110278616253128  0.4931176612718954
  0.4842443950006087  0.4842443950006087  0.5472668149981742
  0.1154121247416956  0.1154121247416957  0.1221903450986269
  0.6469854054179823  0.1154121247416958  0.1221903450986270
  0.1154121247416957  0.6469854054179823  0.1221903450986270
  0.6096403862678230  0.6096403862678230  0.1710788411965306
  0.1407556049993912  0.1407556049993912  0.5777331850018258
  0.6270727614486049  0.1139721383746871  0.6318823387281048
  0.1139721383746871  0.6270727614486049  0.6318823387281048
  0.6270727614486049  0.6270727614486049  0.6318823387281048
 
  0.00000000E+00  0.00000000E+00  0.00000000E+00
  0.00000000E+00  0.00000000E+00  0.00000000E+00
  0.00000000E+00  0.00000000E+00  0.00000000E+00
  0.00000000E+00  0.00000000E+00  0.00000000E+00
  0.00000000E+00  0.00000000E+00  0.00000000E+00
  0.00000000E+00  0.00000000E+00  0.00000000E+00
  0.00000000E+00  0.00000000E+00  0.00000000E+00
  0.00000000E+00  0.00000000E+00  0.00000000E+00
  0.00000000E+00  0.00000000E+00  0.00000000E+00
  0.00000000E+00  0.00000000E+00  0.00000000E+00
  0.00000000E+00  0.00000000E+00  0.00000000E+00
  0.00000000E+00  0.00000000E+00  0.00000000E+00
  0.00000000E+00  0.00000000E+00  0.00000000E+00
  0.00000000E+00  0.00000000E+00  0.00000000E+00
  0.00000000E+00  0.00000000E+00  0.00000000E+00
  0.00000000E+00  0.00000000E+00  0.00000000E+00
  0.00000000E+00  0.00000000E+00  0.00000000E+00
