cd:                                     
   5.46971340000000     
     1.0000000000000000    1.0000000000000000    0.0000000000000000
     0.0000000000000000    1.0000000000000000    1.0000000000000000
     1.0000000000000000    0.0000000000000000    1.0000000000000000
   Si
    17
Direct
  0.2844715109591970  0.2844715109591970  0.1465854671224016
  0.0181758127826104  0.0181758127826104 -0.0545274383478312
  0.5010118326089372 -0.0079116710995097  0.0058880058816356
 -0.0079116710995096  0.5010118326089372  0.0058880058816356
  0.5010118326089372  0.5010118326089372  0.0058880058816356
 -0.0066637586924304 -0.0066637586924304  0.5002311362851684
  0.5130963810996941 -0.0066637586924304  0.5002311362851684
 -0.0066637586924304  0.5130963810996941  0.5002311362851684
  0.4936717709464342  0.4936717709464342  0.5189846871606983
  0.1094474353604142  0.1094474353604141  0.1258472770338543
  0.6552578522453160  0.1094474353604141  0.1258472770338543
  0.1094474353604141  0.6552578522453160  0.1258472770338543
  0.6177163088611151  0.6177163088611151  0.1468510734166544
  0.1449416128724081  0.1449416128724086  0.5651751613827765
  0.6220596790681335  0.1213700446426206  0.6345105972211122
  0.1213700446426206  0.6220596790681335  0.6345105972211122
  0.6220596790681325  0.6220596790681335  0.6345105972211122
 
  0.00000000E+00  0.00000000E+00  0.00000000E+00
  0.00000000E+00  0.00000000E+00  0.00000000E+00
  0.00000000E+00  0.00000000E+00  0.00000000E+00
  0.00000000E+00  0.00000000E+00  0.00000000E+00
  0.00000000E+00  0.00000000E+00  0.00000000E+00
  0.00000000E+00  0.00000000E+00  0.00000000E+00
  0.00000000E+00  0.00000000E+00  0.00000000E+00
  0.00000000E+00  0.00000000E+00  0.00000000E+00
  0.00000000E+00  0.00000000E+00  0.00000000E+00
  0.00000000E+00  0.00000000E+00  0.00000000E+00
  0.00000000E+00  0.00000000E+00  0.00000000E+00
  0.00000000E+00  0.00000000E+00  0.00000000E+00
  0.00000000E+00  0.00000000E+00  0.00000000E+00
  0.00000000E+00  0.00000000E+00  0.00000000E+00
  0.00000000E+00  0.00000000E+00  0.00000000E+00
  0.00000000E+00  0.00000000E+00  0.00000000E+00
  0.00000000E+00  0.00000000E+00  0.00000000E+00
