cd:                                     
   5.46971340000000     
     1.0000000000000000    1.0000000000000000    0.0000000000000000
     0.0000000000000000    1.0000000000000000    1.0000000000000000
     1.0000000000000000    0.0000000000000000    1.0000000000000000
   Si
    17
Direct
  0.2500000000000000  0.2500000000000000  0.2500000000000000
  0.0000000000000000  0.0000000000000000  0.0000000000000000
  0.5025572019871477 -0.0025572019871476 -0.0025572019871476
 -0.0025572019871476  0.5025572019871477 -0.0025572019871476
  0.5025572019871477  0.5025572019871477 -0.0025572019871476
 -0.0025572019871476 -0.0025572019871476  0.5025572019871477
  0.5025572019871477 -0.0025572019871476  0.5025572019871477
 -0.0025572019871476  0.5025572019871477  0.5025572019871477
  0.5000000000000000  0.5000000000000000  0.5000000000000000
  0.1224053290299856  0.1224053290299856  0.1224053290299856
  0.6327840129100432  0.1224053290299856  0.1224053290299856
  0.1224053290299856  0.6327840129100432  0.1224053290299856
  0.6242114460037270  0.6242114460037270  0.1273656619888188
  0.1224053290299856  0.1224053290299856  0.6327840129100432
  0.6242114460037270  0.1273656619888188  0.6242114460037270
  0.1273656619888188  0.6242114460037270  0.6242114460037270
  0.6242114460037270  0.6242114460037270  0.6242114460037270
 
  0.00000000E+00  0.00000000E+00  0.00000000E+00
  0.00000000E+00  0.00000000E+00  0.00000000E+00
  0.00000000E+00  0.00000000E+00  0.00000000E+00
  0.00000000E+00  0.00000000E+00  0.00000000E+00
  0.00000000E+00  0.00000000E+00  0.00000000E+00
  0.00000000E+00  0.00000000E+00  0.00000000E+00
  0.00000000E+00  0.00000000E+00  0.00000000E+00
  0.00000000E+00  0.00000000E+00  0.00000000E+00
  0.00000000E+00  0.00000000E+00  0.00000000E+00
  0.00000000E+00  0.00000000E+00  0.00000000E+00
  0.00000000E+00  0.00000000E+00  0.00000000E+00
  0.00000000E+00  0.00000000E+00  0.00000000E+00
  0.00000000E+00  0.00000000E+00  0.00000000E+00
  0.00000000E+00  0.00000000E+00  0.00000000E+00
  0.00000000E+00  0.00000000E+00  0.00000000E+00
  0.00000000E+00  0.00000000E+00  0.00000000E+00
  0.00000000E+00  0.00000000E+00  0.00000000E+00
