cd:                                     
   5.46971340000000     
     1.0000000000000000    1.0000000000000000    0.0000000000000000
     0.0000000000000000    1.0000000000000000    1.0000000000000000
     1.0000000000000000    0.0000000000000000    1.0000000000000000
   Si
    17
Direct
  0.1982856430384423  0.8915893481918918  0.2106130195091997
  0.1982856430384423  0.2106130195091997  0.8915893481918918
 -0.0021090359640673 -0.0122106298511040 -0.0122106298511040
  0.5253141099933705 -0.0121921673768014 -0.0121921673768014
 -0.0063554740753871  0.4919264609178405  0.0196282023966581
  0.5027190254258422  0.4976368604834380 -0.0042725158704280
 -0.0063554740753871  0.0196282023966581  0.4919264609178405
  0.5027190254258422 -0.0042725158704280  0.4976368604834380
  0.0014052659899671  0.5087140006810018  0.5087140006810018
  0.4800577709364852  0.5086986969652429  0.5086986969652429
  0.6244968025726708  0.1249202291323895  0.1249202291323895
  0.1304561685420029  0.6141613433297757  0.1345907129434217
  0.6196327241015842  0.6141460155876111  0.1345724889329095
  0.1304561685420029  0.1345907129434217  0.6141613433297757
  0.6196327241015842  0.1345724889329095  0.6141460155876111
  0.1026848571947587  0.6467555326451676  0.6467555326451676
  0.6276740552118439  0.6217224013817862  0.6217224013817862
 
  0.00000000E+00  0.00000000E+00  0.00000000E+00
  0.00000000E+00  0.00000000E+00  0.00000000E+00
  0.00000000E+00  0.00000000E+00  0.00000000E+00
  0.00000000E+00  0.00000000E+00  0.00000000E+00
  0.00000000E+00  0.00000000E+00  0.00000000E+00
  0.00000000E+00  0.00000000E+00  0.00000000E+00
  0.00000000E+00  0.00000000E+00  0.00000000E+00
  0.00000000E+00  0.00000000E+00  0.00000000E+00
  0.00000000E+00  0.00000000E+00  0.00000000E+00
  0.00000000E+00  0.00000000E+00  0.00000000E+00
  0.00000000E+00  0.00000000E+00  0.00000000E+00
  0.00000000E+00  0.00000000E+00  0.00000000E+00
  0.00000000E+00  0.00000000E+00  0.00000000E+00
  0.00000000E+00  0.00000000E+00  0.00000000E+00
  0.00000000E+00  0.00000000E+00  0.00000000E+00
  0.00000000E+00  0.00000000E+00  0.00000000E+00
  0.00000000E+00  0.00000000E+00  0.00000000E+00
