cd:                                     
   5.46971340000000     
     1.0000000000000000    1.0000000000000000    0.0000000000000000
     0.0000000000000000    1.0000000000000000    1.0000000000000000
     1.0000000000000000    0.0000000000000000    1.0000000000000000
   Si
    15
Direct
  0.0013714644217217  0.0013714644217217  0.0013714644217217
  0.4958856067348349  0.0013714644217217  0.0013714644217217
  0.0013714644217217  0.4958856067348349  0.0013714644217217
  0.4999994608355832  0.4999994608355832  0.0000016174932506
  0.0013714644217217  0.0013714644217217  0.4958856067348349
  0.4999994608355832  0.0000016174932506  0.4999994608355832
  0.0000016174932506  0.4999994608355832  0.4999994608355832
  0.4999994608355832  0.4999994608355832  0.4999994608355832
  0.6247897223029378  0.1252102776970620  0.1252102776970620
  0.1252102776970620  0.6247897223029378  0.1252102776970620
  0.6247897223029378  0.6247897223029378  0.1252102776970620
  0.1252102776970620  0.1252102776970620  0.6247897223029378
  0.6247897223029378  0.1252102776970620  0.6247897223029378
  0.1252102776970620  0.6247897223029378  0.6247897223029378
  0.6250000000000000  0.6250000000000000  0.6250000000000000
 
  0.00000000E+00  0.00000000E+00  0.00000000E+00
  0.00000000E+00  0.00000000E+00  0.00000000E+00
  0.00000000E+00  0.00000000E+00  0.00000000E+00
  0.00000000E+00  0.00000000E+00  0.00000000E+00
  0.00000000E+00  0.00000000E+00  0.00000000E+00
  0.00000000E+00  0.00000000E+00  0.00000000E+00
  0.00000000E+00  0.00000000E+00  0.00000000E+00
  0.00000000E+00  0.00000000E+00  0.00000000E+00
  0.00000000E+00  0.00000000E+00  0.00000000E+00
  0.00000000E+00  0.00000000E+00  0.00000000E+00
  0.00000000E+00  0.00000000E+00  0.00000000E+00
  0.00000000E+00  0.00000000E+00  0.00000000E+00
  0.00000000E+00  0.00000000E+00  0.00000000E+00
  0.00000000E+00  0.00000000E+00  0.00000000E+00
  0.00000000E+00  0.00000000E+00  0.00000000E+00
